(set-info :smt-lib-version 2.6)
(set-logic QF_FP)
(set-option :produce-models true)
(set-info :source |Random FP created by PyMPF|)
(set-info :license |https://www.gnu.org/licenses/gpl-3.0.html|)
(set-info :category random)
(set-info :status sat)
(declare-const x Float32)
(assert (= x (fp #b1 #b00000000 #b00000000000000000000001)))
;; x should be Float32(0x80000001 [Rational(-1, 713623846352979940529142984724747568191373312), -0.000000])

(declare-const y Float32)
(assert (= y ((_ to_fp 8 24) #xCA577AD1)))
;; y should be Float32(0xCA577AD1 [Rational(-14121681, 4), -3530420.250000])

(declare-const z Float32)
(assert (= z ((_ to_fp 8 24) #x4ABE59C7)))
;; z should be Float32(0x4ABE59C7 [Rational(12474823, 2), 6237411.500000])

(declare-const result Float32)
(assert (= result (fp.fma RNA x y z)))
(assert (= result ((_ to_fp 8 24) #x4ABE59C7)))
(check-sat)
(exit)
